INPUT_PARAMETERS
#Parameters (1.General)
suffix          ABACUS
calculation     scf
esolver_type    ksdft
pseudo_dir      ./
stru_file       STRU
#Parameters (2.Iteration)
ecutwfc         50
scf_thr         1e-8
scf_nmax        50
#Parameters (3.Basis)
basis_type      pw
kpar            4
gamma_only      0
#Parameters (4.Smearing)
smearing_method mp
smearing_sigma  0.015
#Parameters (5.Mixing)
mixing_type     broyden
mixing_beta     0.7
