SYSTEM = NepTrain-default-incar
ALGO = Normal
EDIFF = 1e-06
EDIFFG = -0.01
ENCUT = 500
GGA = PE
IBRION = -1
ISMEAR = 0
ISPIN = 1
ISTART = 0
LCHARG = False
LREAL = Auto
LWAVE = False
NELM = 100
NPAR = 4
NSW = 0
PREC = Normal
SIGMA = 0.05
